p cnf 430 1488
-191 -185 0
-191 176 0
-191 -102 0
-191 -158 0
-191 181 0
191 185 -176 102 158 -181 0
-192 135 0
-192 8 0
-192 177 0
-192 -171 0
-192 -81 0
192 -135 -8 -177 171 81 0
-193 -173 0
-193 54 0
-193 -144 0
-193 183 0
-193 131 0
193 173 -54 144 -183 -131 0
-194 -144 0
-194 11 0
-194 -52 0
-194 80 0
-194 -180 0
194 144 -11 52 -80 180 0
-195 139 0
-195 -78 0
-195 -11 0
-195 97 0
-195 173 0
195 -139 78 11 -97 -173 0
191 192 193 194 195 0
-196 171 0
-196 180 0
-196 -183 0
-196 20 0
-196 -88 0
196 -171 -180 183 -20 88 0
-197 -42 0
-197 87 0
-197 63 0
-197 -160 0
-197 157 0
197 42 -87 -63 160 -157 0
-198 -184 0
-198 17 0
-198 130 0
-198 164 0
-198 -150 0
198 184 -17 -130 -164 150 0
-199 -98 0
-199 -5 0
-199 173 0
-199 -179 0
-199 61 0
199 98 5 -173 179 -61 0
-200 -92 0
-200 58 0
-200 143 0
-200 180 0
-200 -10 0
200 92 -58 -143 -180 10 0
196 197 198 199 200 0
-201 5 0
-201 108 0
-201 -87 0
-201 107 0
-201 -83 0
201 -5 -108 87 -107 83 0
-202 37 0
-202 -8 0
-202 -19 0
-202 -132 0
-202 -128 0
202 -37 8 19 132 128 0
-203 -190 0
-203 88 0
-203 183 0
-203 -181 0
-203 65 0
203 190 -88 -183 181 -65 0
-204 -179 0
-204 82 0
-204 -116 0
-204 52 0
-204 67 0
204 179 -82 116 -52 -67 0
-205 -66 0
-205 -27 0
-205 82 0
-205 -59 0
-205 121 0
205 66 27 -82 59 -121 0
201 202 203 204 205 0
-206 -73 0
-206 -67 0
-206 -47 0
-206 177 0
-206 -9 0
206 73 67 47 -177 9 0
-207 -133 0
-207 109 0
-207 33 0
-207 -155 0
-207 2 0
207 133 -109 -33 155 -2 0
-208 154 0
-208 -80 0
-208 58 0
-208 30 0
-208 10 0
208 -154 80 -58 -30 -10 0
-209 88 0
-209 -84 0
-209 44 0
-209 82 0
-209 60 0
209 -88 84 -44 -82 -60 0
-210 74 0
-210 7 0
-210 120 0
-210 4 0
-210 -163 0
210 -74 -7 -120 -4 163 0
206 207 208 209 210 0
-211 119 0
-211 75 0
-211 69 0
-211 189 0
-211 -111 0
211 -119 -75 -69 -189 111 0
-212 52 0
-212 -6 0
-212 -61 0
-212 -115 0
-212 20 0
212 -52 6 61 115 -20 0
-213 -119 0
-213 -26 0
-213 168 0
-213 172 0
-213 113 0
213 119 26 -168 -172 -113 0
-214 19 0
-214 -29 0
-214 151 0
-214 51 0
-214 -46 0
214 -19 29 -151 -51 46 0
-215 -149 0
-215 -57 0
-215 181 0
-215 -125 0
-215 -127 0
215 149 57 -181 125 127 0
211 212 213 214 215 0
-216 -189 0
-216 170 0
-216 -13 0
-216 -98 0
-216 -156 0
216 189 -170 13 98 156 0
-217 131 0
-217 172 0
-217 123 0
-217 61 0
-217 -34 0
217 -131 -172 -123 -61 34 0
-218 26 0
-218 -65 0
-218 -126 0
-218 -95 0
-218 -179 0
218 -26 65 126 95 179 0
-219 111 0
-219 -126 0
-219 14 0
-219 32 0
-219 102 0
219 -111 126 -14 -32 -102 0
-220 -157 0
-220 36 0
-220 60 0
-220 -48 0
-220 5 0
220 157 -36 -60 48 -5 0
216 217 218 219 220 0
-221 -73 0
-221 184 0
-221 -176 0
-221 -99 0
-221 79 0
221 73 -184 176 99 -79 0
-222 137 0
-222 103 0
-222 188 0
-222 109 0
-222 155 0
222 -137 -103 -188 -109 -155 0
-223 121 0
-223 -93 0
-223 39 0
-223 -180 0
-223 105 0
223 -121 93 -39 180 -105 0
-224 -160 0
-224 148 0
-224 -124 0
-224 88 0
-224 134 0
224 160 -148 124 -88 -134 0
-225 -130 0
-225 95 0
-225 -12 0
-225 66 0
-225 -166 0
225 130 -95 12 -66 166 0
221 222 223 224 225 0
-226 -120 0
-226 100 0
-226 -43 0
-226 83 0
-226 -159 0
226 120 -100 43 -83 159 0
-227 135 0
-227 -31 0
-227 99 0
-227 170 0
-227 156 0
227 -135 31 -99 -170 -156 0
-228 4 0
-228 -11 0
-228 -91 0
-228 -145 0
-228 32 0
228 -4 11 91 145 -32 0
-229 -25 0
-229 -24 0
-229 -53 0
-229 169 0
-229 -58 0
229 25 24 53 -169 58 0
-230 -10 0
-230 141 0
-230 -48 0
-230 -22 0
-230 151 0
230 10 -141 48 22 -151 0
226 227 228 229 230 0
-231 121 0
-231 -190 0
-231 33 0
-231 2 0
-231 141 0
231 -121 190 -33 -2 -141 0
-232 -113 0
-232 -56 0
-232 173 0
-232 -53 0
-232 -148 0
232 113 56 -173 53 148 0
-233 -65 0
-233 -75 0
-233 15 0
-233 -29 0
-233 97 0
233 65 75 -15 29 -97 0
-234 14 0
-234 -66 0
-234 -149 0
-234 38 0
-234 72 0
234 -14 66 149 -38 -72 0
-235 3 0
-235 96 0
-235 -90 0
-235 51 0
-235 100 0
235 -3 -96 90 -51 -100 0
231 232 233 234 235 0
-236 -21 0
-236 -146 0
-236 54 0
-236 -142 0
-236 150 0
236 21 146 -54 142 -150 0
-237 -1 0
-237 -187 0
-237 -155 0
-237 74 0
-237 -27 0
237 1 187 155 -74 27 0
-238 67 0
-238 -121 0
-238 -123 0
-238 -95 0
-238 -71 0
238 -67 121 123 95 71 0
-239 -34 0
-239 81 0
-239 -56 0
-239 -46 0
-239 -57 0
239 34 -81 56 46 57 0
-240 -111 0
-240 124 0
-240 -135 0
-240 105 0
-240 -73 0
240 111 -124 135 -105 73 0
236 237 238 239 240 0
-241 -150 0
-241 -100 0
-241 132 0
-241 143 0
-241 -71 0
241 150 100 -132 -143 71 0
-242 -49 0
-242 -163 0
-242 -173 0
-242 -46 0
-242 -31 0
242 49 163 173 46 31 0
-243 -84 0
-243 -160 0
-243 110 0
-243 -81 0
-243 -134 0
243 84 160 -110 81 134 0
-244 -36 0
-244 -131 0
-244 -169 0
-244 10 0
-244 -20 0
244 36 131 169 -10 20 0
-245 8 0
-245 89 0
-245 -138 0
-245 -135 0
-245 -145 0
245 -8 -89 138 135 145 0
241 242 243 244 245 0
-246 -19 0
-246 54 0
-246 25 0
-246 -113 0
-246 156 0
246 19 -54 -25 113 -156 0
-247 -102 0
-247 70 0
-247 67 0
-247 44 0
-247 -119 0
247 102 -70 -67 -44 119 0
-248 21 0
-248 70 0
-248 -88 0
-248 -161 0
-248 -106 0
248 -21 -70 88 161 106 0
-249 171 0
-249 47 0
-249 -89 0
-249 -78 0
-249 -95 0
249 -171 -47 89 78 95 0
-250 92 0
-250 27 0
-250 -10 0
-250 68 0
-250 -64 0
250 -92 -27 10 -68 64 0
246 247 248 249 250 0
-251 -37 0
-251 -87 0
-251 -187 0
-251 -126 0
-251 34 0
251 37 87 187 126 -34 0
-252 98 0
-252 -69 0
-252 119 0
-252 -57 0
-252 -113 0
252 -98 69 -119 57 113 0
-253 180 0
-253 -103 0
-253 54 0
-253 69 0
-253 159 0
253 -180 103 -54 -69 -159 0
-254 -71 0
-254 -154 0
-254 -111 0
-254 -57 0
-254 67 0
254 71 154 111 57 -67 0
-255 122 0
-255 180 0
-255 -179 0
-255 -163 0
-255 -135 0
255 -122 -180 179 163 135 0
251 252 253 254 255 0
-256 185 0
-256 -151 0
-256 -168 0
-256 131 0
-256 183 0
256 -185 151 168 -131 -183 0
-257 79 0
-257 -90 0
-257 -108 0
-257 167 0
-257 85 0
257 -79 90 108 -167 -85 0
-258 84 0
-258 -101 0
-258 -138 0
-258 -31 0
-258 -54 0
258 -84 101 138 31 54 0
-259 -134 0
-259 27 0
-259 114 0
-259 -104 0
-259 165 0
259 134 -27 -114 104 -165 0
-260 157 0
-260 80 0
-260 -165 0
-260 169 0
-260 8 0
260 -157 -80 165 -169 -8 0
256 257 258 259 260 0
-261 157 0
-261 178 0
-261 73 0
-261 -90 0
-261 -113 0
261 -157 -178 -73 90 113 0
-262 -50 0
-262 -135 0
-262 -174 0
-262 -24 0
-262 105 0
262 50 135 174 24 -105 0
-263 182 0
-263 144 0
-263 -79 0
-263 -123 0
-263 59 0
263 -182 -144 79 123 -59 0
-264 165 0
-264 84 0
-264 24 0
-264 -77 0
-264 -146 0
264 -165 -84 -24 77 146 0
-265 -21 0
-265 -44 0
-265 23 0
-265 1 0
-265 -25 0
265 21 44 -23 -1 25 0
261 262 263 264 265 0
-266 -179 0
-266 -180 0
-266 125 0
-266 84 0
-266 1 0
266 179 180 -125 -84 -1 0
-267 116 0
-267 154 0
-267 119 0
-267 -54 0
-267 -75 0
267 -116 -154 -119 54 75 0
-268 126 0
-268 -128 0
-268 162 0
-268 186 0
-268 102 0
268 -126 128 -162 -186 -102 0
-269 171 0
-269 162 0
-269 176 0
-269 -19 0
-269 -126 0
269 -171 -162 -176 19 126 0
-270 -76 0
-270 95 0
-270 91 0
-270 168 0
-270 64 0
270 76 -95 -91 -168 -64 0
266 267 268 269 270 0
-271 -168 0
-271 -15 0
-271 37 0
-271 -158 0
-271 39 0
271 168 15 -37 158 -39 0
-272 -137 0
-272 -67 0
-272 28 0
-272 26 0
-272 18 0
272 137 67 -28 -26 -18 0
-273 -176 0
-273 -131 0
-273 -46 0
-273 74 0
-273 82 0
273 176 131 46 -74 -82 0
-274 -88 0
-274 -127 0
-274 -73 0
-274 -161 0
-274 44 0
274 88 127 73 161 -44 0
-275 135 0
-275 -88 0
-275 86 0
-275 -174 0
-275 -63 0
275 -135 88 -86 174 63 0
271 272 273 274 275 0
-276 25 0
-276 -93 0
-276 8 0
-276 -149 0
-276 67 0
276 -25 93 -8 149 -67 0
-277 -173 0
-277 17 0
-277 51 0
-277 -71 0
-277 -109 0
277 173 -17 -51 71 109 0
-278 -112 0
-278 -22 0
-278 175 0
-278 -179 0
-278 57 0
278 112 22 -175 179 -57 0
-279 -43 0
-279 -185 0
-279 -53 0
-279 32 0
-279 -56 0
279 43 185 53 -32 56 0
-280 173 0
-280 156 0
-280 -161 0
-280 -188 0
-280 137 0
280 -173 -156 161 188 -137 0
276 277 278 279 280 0
-281 -85 0
-281 63 0
-281 146 0
-281 61 0
-281 12 0
281 85 -63 -146 -61 -12 0
-282 -57 0
-282 117 0
-282 -139 0
-282 -100 0
-282 -182 0
282 57 -117 139 100 182 0
-283 -40 0
-283 -10 0
-283 -84 0
-283 -163 0
-283 -85 0
283 40 10 84 163 85 0
-284 -1 0
-284 151 0
-284 46 0
-284 94 0
-284 -29 0
284 1 -151 -46 -94 29 0
-285 -9 0
-285 -179 0
-285 -144 0
-285 -128 0
-285 65 0
285 9 179 144 128 -65 0
281 282 283 284 285 0
-286 -24 0
-286 156 0
-286 -86 0
-286 19 0
-286 -22 0
286 24 -156 86 -19 22 0
-287 -69 0
-287 -24 0
-287 -161 0
-287 135 0
-287 50 0
287 69 24 161 -135 -50 0
-288 -179 0
-288 -58 0
-288 -96 0
-288 50 0
-288 21 0
288 179 58 96 -50 -21 0
-289 48 0
-289 131 0
-289 -39 0
-289 -105 0
-289 -35 0
289 -48 -131 39 105 35 0
-290 85 0
-290 -93 0
-290 63 0
-290 124 0
-290 165 0
290 -85 93 -63 -124 -165 0
286 287 288 289 290 0
-291 85 0
-291 -20 0
-291 -127 0
-291 2 0
-291 -143 0
291 -85 20 127 -2 143 0
-292 62 0
-292 -122 0
-292 39 0
-292 -180 0
-292 73 0
292 -62 122 -39 180 -73 0
-293 77 0
-293 132 0
-293 181 0
-293 -68 0
-293 -50 0
293 -77 -132 -181 68 50 0
-294 -136 0
-294 -126 0
-294 -19 0
-294 165 0
-294 -177 0
294 136 126 19 -165 177 0
-295 73 0
-295 90 0
-295 -158 0
-295 146 0
-295 22 0
295 -73 -90 158 -146 -22 0
291 292 293 294 295 0
-296 -5 0
-296 -177 0
-296 122 0
-296 -143 0
-296 164 0
296 5 177 -122 143 -164 0
-297 -49 0
-297 -123 0
-297 48 0
-297 22 0
-297 111 0
297 49 123 -48 -22 -111 0
-298 -123 0
-298 -19 0
-298 -112 0
-298 71 0
-298 -7 0
298 123 19 112 -71 7 0
-299 -142 0
-299 -153 0
-299 -140 0
-299 -40 0
-299 29 0
299 142 153 140 40 -29 0
-300 67 0
-300 -82 0
-300 -174 0
-300 146 0
-300 -117 0
300 -67 82 174 -146 117 0
296 297 298 299 300 0
-301 107 0
-301 139 0
-301 -189 0
-301 -91 0
-301 -40 0
301 -107 -139 189 91 40 0
-302 -63 0
-302 -70 0
-302 3 0
-302 -77 0
-302 -74 0
302 63 70 -3 77 74 0
-303 -88 0
-303 -171 0
-303 112 0
-303 -41 0
-303 115 0
303 88 171 -112 41 -115 0
-304 165 0
-304 -91 0
-304 118 0
-304 103 0
-304 -117 0
304 -165 91 -118 -103 117 0
-305 -53 0
-305 166 0
-305 69 0
-305 147 0
-305 8 0
305 53 -166 -69 -147 -8 0
301 302 303 304 305 0
-306 -115 0
-306 -53 0
-306 142 0
-306 -60 0
-306 54 0
306 115 53 -142 60 -54 0
-307 137 0
-307 -18 0
-307 -145 0
-307 116 0
-307 -180 0
307 -137 18 145 -116 180 0
-308 139 0
-308 172 0
-308 15 0
-308 -3 0
-308 -157 0
308 -139 -172 -15 3 157 0
-309 82 0
-309 -136 0
-309 164 0
-309 141 0
-309 -7 0
309 -82 136 -164 -141 7 0
-310 102 0
-310 157 0
-310 -104 0
-310 118 0
-310 -78 0
310 -102 -157 104 -118 78 0
306 307 308 309 310 0
-311 179 0
-311 74 0
-311 49 0
-311 -24 0
-311 -120 0
311 -179 -74 -49 24 120 0
-312 -188 0
-312 7 0
-312 107 0
-312 -42 0
-312 -179 0
312 188 -7 -107 42 179 0
-313 163 0
-313 116 0
-313 69 0
-313 -158 0
-313 -47 0
313 -163 -116 -69 158 47 0
-314 -132 0
-314 -100 0
-314 -128 0
-314 -80 0
-314 84 0
314 132 100 128 80 -84 0
-315 -112 0
-315 -149 0
-315 -133 0
-315 171 0
-315 172 0
315 112 149 133 -171 -172 0
311 312 313 314 315 0
-316 92 0
-316 4 0
-316 83 0
-316 -60 0
-316 -102 0
316 -92 -4 -83 60 102 0
-317 185 0
-317 66 0
-317 91 0
-317 177 0
-317 -60 0
317 -185 -66 -91 -177 60 0
-318 54 0
-318 -149 0
-318 -100 0
-318 51 0
-318 -14 0
318 -54 149 100 -51 14 0
-319 -165 0
-319 -117 0
-319 -85 0
-319 -109 0
-319 80 0
319 165 117 85 109 -80 0
-320 -57 0
-320 -159 0
-320 -189 0
-320 -156 0
-320 -5 0
320 57 159 189 156 5 0
316 317 318 319 320 0
-321 -7 0
-321 112 0
-321 164 0
-321 -176 0
-321 86 0
321 7 -112 -164 176 -86 0
-322 -166 0
-322 82 0
-322 184 0
-322 43 0
-322 162 0
322 166 -82 -184 -43 -162 0
-323 -82 0
-323 21 0
-323 -187 0
-323 -125 0
-323 24 0
323 82 -21 187 125 -24 0
-324 19 0
-324 72 0
-324 -80 0
-324 33 0
-324 -53 0
324 -19 -72 80 -33 53 0
-325 32 0
-325 -31 0
-325 89 0
-325 180 0
-325 -53 0
325 -32 31 -89 -180 53 0
321 322 323 324 325 0
-326 151 0
-326 14 0
-326 -16 0
-326 -129 0
-326 -175 0
326 -151 -14 16 129 175 0
-327 -163 0
-327 -45 0
-327 144 0
-327 -71 0
-327 139 0
327 163 45 -144 71 -139 0
-328 -97 0
-328 166 0
-328 -151 0
-328 66 0
-328 -2 0
328 97 -166 151 -66 2 0
-329 -95 0
-329 -17 0
-329 -155 0
-329 28 0
-329 -149 0
329 95 17 155 -28 149 0
-330 -100 0
-330 -177 0
-330 55 0
-330 9 0
-330 145 0
330 100 177 -55 -9 -145 0
326 327 328 329 330 0
-331 8 0
-331 -10 0
-331 159 0
-331 -180 0
-331 -131 0
331 -8 10 -159 180 131 0
-332 -165 0
-332 100 0
-332 -108 0
-332 -117 0
-332 22 0
332 165 -100 108 117 -22 0
-333 -145 0
-333 161 0
-333 93 0
-333 -66 0
-333 15 0
333 145 -161 -93 66 -15 0
-334 148 0
-334 -86 0
-334 93 0
-334 -138 0
-334 12 0
334 -148 86 -93 138 -12 0
-335 85 0
-335 -145 0
-335 -75 0
-335 -153 0
-335 -48 0
335 -85 145 75 153 48 0
331 332 333 334 335 0
-336 -60 0
-336 -53 0
-336 156 0
-336 -172 0
-336 168 0
336 60 53 -156 172 -168 0
-337 46 0
-337 -67 0
-337 -41 0
-337 -19 0
-337 44 0
337 -46 67 41 19 -44 0
-338 63 0
-338 176 0
-338 -51 0
-338 -12 0
-338 7 0
338 -63 -176 51 12 -7 0
-339 43 0
-339 14 0
-339 -42 0
-339 -156 0
-339 4 0
339 -43 -14 42 156 -4 0
-340 3 0
-340 -173 0
-340 -35 0
-340 138 0
-340 -50 0
340 -3 173 35 -138 50 0
336 337 338 339 340 0
-341 -69 0
-341 55 0
-341 21 0
-341 122 0
-341 40 0
341 69 -55 -21 -122 -40 0
-342 34 0
-342 120 0
-342 59 0
-342 155 0
-342 88 0
342 -34 -120 -59 -155 -88 0
-343 -136 0
-343 -80 0
-343 183 0
-343 -51 0
-343 -89 0
343 136 80 -183 51 89 0
-344 28 0
-344 62 0
-344 74 0
-344 157 0
-344 120 0
344 -28 -62 -74 -157 -120 0
-345 169 0
-345 -73 0
-345 -32 0
-345 87 0
-345 34 0
345 -169 73 32 -87 -34 0
341 342 343 344 345 0
-346 167 0
-346 94 0
-346 -95 0
-346 114 0
-346 -23 0
346 -167 -94 95 -114 23 0
-347 -4 0
-347 143 0
-347 -127 0
-347 44 0
-347 -67 0
347 4 -143 127 -44 67 0
-348 177 0
-348 -85 0
-348 87 0
-348 10 0
-348 180 0
348 -177 85 -87 -10 -180 0
-349 -89 0
-349 -163 0
-349 -103 0
-349 10 0
-349 152 0
349 89 163 103 -10 -152 0
-350 126 0
-350 169 0
-350 -171 0
-350 176 0
-350 -41 0
350 -126 -169 171 -176 41 0
346 347 348 349 350 0
-351 146 0
-351 -99 0
-351 -170 0
-351 -78 0
-351 137 0
351 -146 99 170 78 -137 0
-352 -111 0
-352 175 0
-352 82 0
-352 -61 0
-352 45 0
352 111 -175 -82 61 -45 0
-353 -98 0
-353 -29 0
-353 -156 0
-353 165 0
-353 -187 0
353 98 29 156 -165 187 0
-354 -187 0
-354 -38 0
-354 -36 0
-354 182 0
-354 183 0
354 187 38 36 -182 -183 0
-355 -144 0
-355 -186 0
-355 112 0
-355 -96 0
-355 107 0
355 144 186 -112 96 -107 0
351 352 353 354 355 0
-356 101 0
-356 -184 0
-356 -52 0
-356 100 0
-356 9 0
356 -101 184 52 -100 -9 0
-357 10 0
-357 -115 0
-357 -104 0
-357 87 0
-357 -12 0
357 -10 115 104 -87 12 0
-358 89 0
-358 129 0
-358 -75 0
-358 69 0
-358 -153 0
358 -89 -129 75 -69 153 0
-359 -152 0
-359 -112 0
-359 161 0
-359 -168 0
-359 149 0
359 152 112 -161 168 -149 0
-360 -153 0
-360 154 0
-360 -128 0
-360 68 0
-360 23 0
360 153 -154 128 -68 -23 0
356 357 358 359 360 0
-361 -14 0
-361 188 0
-361 1 0
-361 5 0
-361 -47 0
361 14 -188 -1 -5 47 0
-362 -146 0
-362 76 0
-362 -84 0
-362 -2 0
-362 -44 0
362 146 -76 84 2 44 0
-363 -190 0
-363 68 0
-363 113 0
-363 -26 0
-363 134 0
363 190 -68 -113 26 -134 0
-364 34 0
-364 -179 0
-364 41 0
-364 -16 0
-364 150 0
364 -34 179 -41 16 -150 0
-365 178 0
-365 -172 0
-365 95 0
-365 122 0
-365 185 0
365 -178 172 -95 -122 -185 0
361 362 363 364 365 0
-366 23 0
-366 -38 0
-366 -46 0
-366 -170 0
-366 -82 0
366 -23 38 46 170 82 0
-367 -166 0
-367 -115 0
-367 -110 0
-367 -1 0
-367 150 0
367 166 115 110 1 -150 0
-368 118 0
-368 19 0
-368 29 0
-368 -190 0
-368 -162 0
368 -118 -19 -29 190 162 0
-369 -17 0
-369 -143 0
-369 -168 0
-369 177 0
-369 62 0
369 17 143 168 -177 -62 0
-370 106 0
-370 -175 0
-370 43 0
-370 -26 0
-370 -154 0
370 -106 175 -43 26 154 0
366 367 368 369 370 0
-371 -77 0
-371 -120 0
-371 -180 0
-371 6 0
-371 -103 0
371 77 120 180 -6 103 0
-372 136 0
-372 -187 0
-372 -24 0
-372 -77 0
-372 88 0
372 -136 187 24 77 -88 0
-373 -157 0
-373 49 0
-373 -15 0
-373 -91 0
-373 -12 0
373 157 -49 15 91 12 0
-374 47 0
-374 80 0
-374 158 0
-374 113 0
-374 -155 0
374 -47 -80 -158 -113 155 0
-375 -158 0
-375 -65 0
-375 -98 0
-375 -137 0
-375 113 0
375 158 65 98 137 -113 0
371 372 373 374 375 0
-376 -39 0
-376 80 0
-376 -34 0
-376 -100 0
-376 183 0
376 39 -80 34 100 -183 0
-377 102 0
-377 187 0
-377 5 0
-377 -52 0
-377 29 0
377 -102 -187 -5 52 -29 0
-378 -129 0
-378 -41 0
-378 -169 0
-378 -47 0
-378 -12 0
378 129 41 169 47 12 0
-379 -95 0
-379 44 0
-379 51 0
-379 -52 0
-379 4 0
379 95 -44 -51 52 -4 0
-380 -45 0
-380 -29 0
-380 -52 0
-380 -94 0
-380 26 0
380 45 29 52 94 -26 0
376 377 378 379 380 0
-381 -76 0
-381 -112 0
-381 100 0
-381 20 0
-381 149 0
381 76 112 -100 -20 -149 0
-382 44 0
-382 138 0
-382 -108 0
-382 -103 0
-382 158 0
382 -44 -138 108 103 -158 0
-383 60 0
-383 -187 0
-383 28 0
-383 72 0
-383 29 0
383 -60 187 -28 -72 -29 0
-384 -36 0
-384 162 0
-384 114 0
-384 -22 0
-384 90 0
384 36 -162 -114 22 -90 0
-385 -121 0
-385 162 0
-385 -40 0
-385 -75 0
-385 182 0
385 121 -162 40 75 -182 0
381 382 383 384 385 0
-386 112 0
-386 73 0
-386 8 0
-386 54 0
-386 -61 0
386 -112 -73 -8 -54 61 0
-387 84 0
-387 100 0
-387 -153 0
-387 43 0
-387 139 0
387 -84 -100 153 -43 -139 0
-388 148 0
-388 -60 0
-388 -42 0
-388 -33 0
-388 -97 0
388 -148 60 42 33 97 0
-389 -127 0
-389 183 0
-389 105 0
-389 147 0
-389 -55 0
389 127 -183 -105 -147 55 0
-390 144 0
-390 -107 0
-390 -3 0
-390 40 0
-390 170 0
390 -144 107 3 -40 -170 0
386 387 388 389 390 0
-391 134 0
-391 99 0
-391 -145 0
-391 141 0
-391 92 0
391 -134 -99 145 -141 -92 0
-392 -122 0
-392 143 0
-392 -168 0
-392 132 0
-392 118 0
392 122 -143 168 -132 -118 0
-393 -182 0
-393 -72 0
-393 -152 0
-393 180 0
-393 -112 0
393 182 72 152 -180 112 0
-394 -26 0
-394 23 0
-394 78 0
-394 20 0
-394 31 0
394 26 -23 -78 -20 -31 0
-395 -124 0
-395 -18 0
-395 138 0
-395 -170 0
-395 144 0
395 124 18 -138 170 -144 0
391 392 393 394 395 0
-396 60 0
-396 -183 0
-396 -9 0
-396 -150 0
-396 -143 0
396 -60 183 9 150 143 0
-397 -6 0
-397 14 0
-397 -101 0
-397 -2 0
-397 3 0
397 6 -14 101 2 -3 0
-398 176 0
-398 -11 0
-398 178 0
-398 112 0
-398 -13 0
398 -176 11 -178 -112 13 0
-399 -165 0
-399 42 0
-399 29 0
-399 -164 0
-399 19 0
399 165 -42 -29 164 -19 0
-400 68 0
-400 -172 0
-400 50 0
-400 -73 0
-400 -84 0
400 -68 172 -50 73 84 0
396 397 398 399 400 0
-401 33 0
-401 31 0
-401 1 0
-401 83 0
-401 -39 0
401 -33 -31 -1 -83 39 0
-402 -59 0
-402 -66 0
-402 -43 0
-402 155 0
-402 -148 0
402 59 66 43 -155 148 0
-403 -160 0
-403 98 0
-403 -62 0
-403 156 0
-403 90 0
403 160 -98 62 -156 -90 0
-404 79 0
-404 -141 0
-404 22 0
-404 -91 0
-404 -128 0
404 -79 141 -22 91 128 0
-405 69 0
-405 55 0
-405 3 0
-405 87 0
-405 71 0
405 -69 -55 -3 -87 -71 0
401 402 403 404 405 0
-406 -180 0
-406 80 0
-406 -82 0
-406 112 0
-406 -16 0
406 180 -80 82 -112 16 0
-407 -78 0
-407 -116 0
-407 -53 0
-407 31 0
-407 -58 0
407 78 116 53 -31 58 0
-408 114 0
-408 -164 0
-408 -11 0
-408 157 0
-408 134 0
408 -114 164 11 -157 -134 0
-409 45 0
-409 98 0
-409 99 0
-409 28 0
-409 61 0
409 -45 -98 -99 -28 -61 0
-410 149 0
-410 -159 0
-410 -41 0
-410 -115 0
-410 45 0
410 -149 159 41 115 -45 0
406 407 408 409 410 0
-411 69 0
-411 28 0
-411 114 0
-411 -97 0
-411 151 0
411 -69 -28 -114 97 -151 0
-412 -161 0
-412 -97 0
-412 146 0
-412 -180 0
-412 118 0
412 161 97 -146 180 -118 0
-413 -121 0
-413 -152 0
-413 27 0
-413 -116 0
-413 188 0
413 121 152 -27 116 -188 0
-414 -116 0
-414 -1 0
-414 54 0
-414 -76 0
-414 27 0
414 116 1 -54 76 -27 0
-415 67 0
-415 -80 0
-415 181 0
-415 -163 0
-415 -22 0
415 -67 80 -181 163 22 0
411 412 413 414 415 0
-416 -85 0
-416 57 0
-416 -31 0
-416 -133 0
-416 123 0
416 85 -57 31 133 -123 0
-417 103 0
-417 -6 0
-417 -112 0
-417 47 0
-417 -156 0
417 -103 6 112 -47 156 0
-418 190 0
-418 -178 0
-418 -75 0
-418 -124 0
-418 -157 0
418 -190 178 75 124 157 0
-419 -92 0
-419 63 0
-419 68 0
-419 -110 0
-419 -72 0
419 92 -63 -68 110 72 0
-420 124 0
-420 -114 0
-420 -113 0
-420 29 0
-420 154 0
420 -124 114 113 -29 -154 0
416 417 418 419 420 0
-421 20 0
-421 173 0
-421 83 0
-421 -48 0
-421 132 0
421 -20 -173 -83 48 -132 0
-422 -45 0
-422 -189 0
-422 -144 0
-422 -139 0
-422 51 0
422 45 189 144 139 -51 0
-423 142 0
-423 54 0
-423 -190 0
-423 113 0
-423 -126 0
423 -142 -54 190 -113 126 0
-424 13 0
-424 -64 0
-424 -119 0
-424 -91 0
-424 -80 0
424 -13 64 119 91 80 0
-425 -179 0
-425 -137 0
-425 7 0
-425 -32 0
-425 -163 0
425 179 137 -7 32 163 0
421 422 423 424 425 0
-426 66 0
-426 13 0
-426 -178 0
-426 -152 0
-426 -23 0
426 -66 -13 178 152 23 0
-427 -15 0
-427 -159 0
-427 -3 0
-427 22 0
-427 -5 0
427 15 159 3 -22 5 0
-428 -28 0
-428 29 0
-428 -109 0
-428 -97 0
-428 119 0
428 28 -29 109 97 -119 0
-429 42 0
-429 70 0
-429 -40 0
-429 -60 0
-429 176 0
429 -42 -70 40 60 -176 0
-430 103 0
-430 154 0
-430 7 0
-430 85 0
-430 133 0
430 -103 -154 -7 -85 -133 0
426 427 428 429 430 0
